tsp_instances/TSP50/instance60.tsp
NODE_COORD_SECTION
0 31 103
1 159 77
2 3 126
3 110 87
4 15 47
5 149 95
6 45 162
7 60 8
8 99 128
9 122 4
10 131 150
11 60 64
12 16 132
13 126 170
14 28 135
15 70 125
16 110 79
17 25 14
18 119 93
19 180 198
20 182 68
21 170 180
22 154 183
23 78 34
24 2 59
25 199 142
26 103 125
27 156 62
28 143 90
29 21 98
30 102 36
31 124 65
32 120 155
33 61 170
34 75 48
35 165 27
36 108 7
37 69 95
38 139 36
39 126 36
40 7 150
41 146 20
42 98 117
43 112 153
44 185 185
45 46 133
46 44 125
47 109 141
48 175 2
49 52 27
