tsp_instances/TSP50/instance60.opt.tour
TOUR_SECTION
1
30
25
5
18
8
50
12
35
24
31
37
10
49
36
42
39
40
32
17
4
19
29
6
2
28
21
26
45
20
22
23
14
11
33
44
48
9
27
43
38
16
34
7
41
3
13
15
46
47
-1